1293571
92,95,61,86,18,72,75,98,104,46,96,88,90,48,10,103,57,53,101,99,52,16,79,47,20,73,91,3,66,78,55,102,29,5,60,94,31,42,84,43,19,62,2,82,24,15,106,93,45,80,1,58,83,50,28,51,33,44,81,100,97,34,0,4,89,108,23,22,14,21,63,9,65,76,8,36,25,37,40,71,30,56,74,85,26,68,69,13,38,70,49,17,6,87,64,59,41,77,32,107,105,54,39,67,7,27,35,11,12,92